2 41 22 75 56 4 26 
33 81 65 66 20 1 
5 61 86 16 85 91 100 37 93 
31 10 90 32 70 
95 92 42 15 57 87 13 
94 99 96 6 
21 72 23 39 67 25 55 54 
83 8 45 84 17 60 89 
40 73 74 58 
12 29 24 80 68 
28 76 3 79 78 50 
53 
88 7 82 18 
59 98 44 38 14 43 97 
27 69 30 51 9 71 35 34 77 
52 62 11 19 47 48 
63 64 49 36 46 
